%%%%%%%%%%%%%%%%%%%%%%%%%%%%%%%%%%%%%%%%%%%%%%%%%%%%%%%%%%%%%%%%%%%%%%%%%
%FILE DATA:	Soccer Computational Problem for MiniZinc Models
%AUTHORS:	Robinson Duque, Alejandro Arbelaez, Juan Francisco Díaz
%CONTACT:  	robinson.duque@correounivalle.edu.co 
%LAST UPDATE:	May, 2018 
%ROUND ROBIN:2
%TEAMS:20
%PRESENT FIXTURE:24
%FIXTURES TO PLAY:14
%GAMES TO PLAY:140
%%%%%%%%%%%%%%%%%%%%%%%%%%%%%%%%%%%%%%%%%%%%%%%%%%%%%%%%%%%%%%%%%%%%%%%%%
%Number of teams:
n=20;

%For the purpose of our models, we offer two representations of the games to play, namely fixtures and games to play:

%Fixtures to play:
%fixtures=[|0,0,1,1,1,1,1,1,0,0,1,1,0,1,0,1,1,1,1,1
%|0,0,0,0,1,0,1,1,0,1,1,1,1,1,1,1,1,1,1,1
%|1,0,0,1,0,1,1,0,1,1,1,0,1,1,1,0,1,1,1,1
%|1,0,1,0,1,1,1,0,0,1,0,0,1,1,1,1,1,1,1,1
%|1,1,0,1,0,1,1,1,1,0,0,1,1,1,1,0,1,1,1,0
%|1,0,1,1,1,0,1,1,1,1,1,1,0,1,1,1,0,1,0,0
%|1,1,1,1,1,1,0,1,0,1,0,1,0,1,0,1,1,1,0,1
%|1,1,0,0,1,1,1,0,0,1,0,1,1,1,1,0,1,1,1,1
%|0,0,1,0,1,1,0,0,0,1,1,1,1,1,1,1,1,1,1,1
%|0,1,1,1,0,1,1,1,1,0,0,1,1,0,1,0,1,1,1,1
%|1,1,1,0,0,1,0,0,1,0,0,1,1,1,1,1,1,1,1,1
%|1,1,0,0,1,1,1,1,1,1,1,0,1,1,1,1,0,0,0,1
%|0,1,1,1,1,0,0,1,1,1,1,1,0,0,1,1,0,1,1,1
%|1,1,1,1,1,1,1,1,1,0,1,1,0,0,0,1,1,1,0,0
%|0,1,1,1,1,1,0,1,1,1,1,1,1,0,0,1,0,1,1,0
%|1,1,0,1,0,1,1,0,1,0,1,1,1,1,1,0,1,0,1,1
%|1,1,1,1,1,0,1,1,1,1,1,0,0,1,0,1,0,0,1,1
%|1,1,1,1,1,1,1,1,1,1,1,0,1,1,1,0,0,0,0,0
%|1,1,1,1,1,0,0,1,1,1,1,0,1,0,1,1,1,0,0,1
%|1,1,1,1,0,0,1,1,1,1,1,1,1,0,0,1,1,0,1,0|];

%Played Fixtures:
%PlayedFixtures=[|0,2,1,1,1,1,1,1,2,2,1,1,2,1,2,1,1,1,1,1
%|2,0,2,2,1,2,1,1,2,1,1,1,1,1,1,1,1,1,1,1
%|1,2,0,1,2,1,1,2,1,1,1,2,1,1,1,2,1,1,1,1
%|1,2,1,0,1,1,1,2,2,1,2,2,1,1,1,1,1,1,1,1
%|1,1,2,1,0,1,1,1,1,2,2,1,1,1,1,2,1,1,1,2
%|1,2,1,1,1,0,1,1,1,1,1,1,2,1,1,1,2,1,2,2
%|1,1,1,1,1,1,0,1,2,1,2,1,2,1,2,1,1,1,2,1
%|1,1,2,2,1,1,1,0,2,1,2,1,1,1,1,2,1,1,1,1
%|2,2,1,2,1,1,2,2,0,1,1,1,1,1,1,1,1,1,1,1
%|2,1,1,1,2,1,1,1,1,0,2,1,1,2,1,2,1,1,1,1
%|1,1,1,2,2,1,2,2,1,2,0,1,1,1,1,1,1,1,1,1
%|1,1,2,2,1,1,1,1,1,1,1,0,1,1,1,1,2,2,2,1
%|2,1,1,1,1,2,2,1,1,1,1,1,0,2,1,1,2,1,1,1
%|1,1,1,1,1,1,1,1,1,2,1,1,2,0,2,1,1,1,2,2
%|2,1,1,1,1,1,2,1,1,1,1,1,1,2,0,1,2,1,1,2
%|1,1,2,1,2,1,1,2,1,2,1,1,1,1,1,0,1,2,1,1
%|1,1,1,1,1,2,1,1,1,1,1,2,2,1,2,1,0,2,1,1
%|1,1,1,1,1,1,1,1,1,1,1,2,1,1,1,2,2,0,2,2
%|1,1,1,1,1,2,2,1,1,1,1,2,1,2,1,1,1,2,0,1
%|1,1,1,1,2,2,1,1,1,1,1,1,1,2,2,1,1,2,1,0|];

%Games to play:
games=[|3,1|4,1|4,3|5,1|5,2|5,4|6,1|6,3|6,4|6,5|7,1|7,2|7,3|7,4|7,5|7,6|8,1|8,2|8,5|8,6|8,7|9,3|9,5|9,6|10,2|10,3|10,4|10,6|10,7|10,8|10,9|11,1|11,2|11,3|11,6|11,9|12,1|12,2|12,5|12,6|12,7|12,8|12,9|12,10|12,11|13,2|13,3|13,4|13,5|13,8|13,9|13,10|13,11|13,12|14,1|14,2|14,3|14,4|14,5|14,6|14,7|14,8|14,9|14,11|14,12|15,2|15,3|15,4|15,5|15,6|15,8|15,9|15,10|15,11|15,12|15,13|16,1|16,2|16,4|16,6|16,7|16,9|16,11|16,12|16,13|16,14|16,15|17,1|17,2|17,3|17,4|17,5|17,7|17,8|17,9|17,10|17,11|17,14|17,16|18,1|18,2|18,3|18,4|18,5|18,6|18,7|18,8|18,9|18,10|18,11|18,13|18,14|18,15|19,1|19,2|19,3|19,4|19,5|19,8|19,9|19,10|19,11|19,13|19,15|19,16|19,17|20,1|20,2|20,3|20,4|20,7|20,8|20,9|20,10|20,11|20,12|20,13|20,16|20,17|20,19|];

%Played Games:
%PlayedGames=[|2,1|2,1|3,1|3,2|3,2|4,1|4,2|4,2|4,3|5,1|5,2|5,3|5,3|5,4|6,1|6,2|6,2|6,3|6,4|6,5|7,1|7,2|7,3|7,4|7,5|7,6|8,1|8,2|8,3|8,3|8,4|8,4|8,5|8,6|8,7|9,1|9,1|9,2|9,2|9,3|9,4|9,4|9,5|9,6|9,7|9,7|9,8|9,8|10,1|10,1|10,2|10,3|10,4|10,5|10,5|10,6|10,7|10,8|10,9|11,1|11,2|11,3|11,4|11,4|11,5|11,5|11,6|11,7|11,7|11,8|11,8|11,9|11,10|11,10|12,1|12,2|12,3|12,3|12,4|12,4|12,5|12,6|12,7|12,8|12,9|12,10|12,11|13,1|13,1|13,2|13,3|13,4|13,5|13,6|13,6|13,7|13,7|13,8|13,9|13,10|13,11|13,12|14,1|14,2|14,3|14,4|14,5|14,6|14,7|14,8|14,9|14,10|14,10|14,11|14,12|14,13|14,13|15,1|15,1|15,2|15,3|15,4|15,5|15,6|15,7|15,7|15,8|15,9|15,10|15,11|15,12|15,13|15,14|15,14|16,1|16,2|16,3|16,3|16,4|16,5|16,5|16,6|16,7|16,8|16,8|16,9|16,10|16,10|16,11|16,12|16,13|16,14|16,15|17,1|17,2|17,3|17,4|17,5|17,6|17,6|17,7|17,8|17,9|17,10|17,11|17,12|17,12|17,13|17,13|17,14|17,15|17,15|17,16|18,1|18,2|18,3|18,4|18,5|18,6|18,7|18,8|18,9|18,10|18,11|18,12|18,12|18,13|18,14|18,15|18,16|18,16|18,17|18,17|19,1|19,2|19,3|19,4|19,5|19,6|19,6|19,7|19,7|19,8|19,9|19,10|19,11|19,12|19,12|19,13|19,14|19,14|19,15|19,16|19,17|19,18|19,18|20,1|20,2|20,3|20,4|20,5|20,5|20,6|20,6|20,7|20,8|20,9|20,10|20,11|20,12|20,13|20,14|20,14|20,15|20,15|20,16|20,17|20,18|20,18|20,19|];

%Played Games - Win Results:
%% 0  0  0  0  0  0  0  0  0  0  1  0  0  0  0  0  0  0  1  0
%% 0  0  0  0  0  0  0  0  0  0  0  0  0  0  0  0  0  0  0  0
%% 0  0  0  0  0  0  0  0  0  0  1  0  0  0  0  0  0  0  0  0
%% 0  0  0  0  0  0  0  0  0  0  0  0  0  0  0  0  0  0  0  0
%% 0  0  0  0  0  0  0  0  0  0  0  0  0  0  0  0  0  0  1  0
%% 1  0  0  0  0  0  0  0  0  0  0  0  0  0  0  0  0  0  0  0
%% 1  1  1  0  0  1  0  1  0  0  0  1  0  0  1  0  0  0  0  0
%% 1  1  0  0  0  0  0  0  0  0  0  1  0  0  0  0  0  0  0  0
%% 0  0  0  0  0  0  0  0  0  0  1  0  0  0  0  0  0  0  1  0
%% 0  1  1  1  0  1  0  1  1  0  0  0  0  1  0  2  0  0  1  0
%% 0  0  0  0  0  0  0  0  0  0  0  0  0  0  0  0  0  0  0  0
%% 0  0  0  0  0  0  0  0  0  0  0  0  0  0  0  0  0  0  0  0
%% 0  1  1  0  1  2  0  1  0  1  0  1  0  1  0  1  2  0  0  0
%% 0  0  0  1  0  1  0  0  0  0  0  1  0  0  0  0  0  0  0  0
%% 0  1  1  1  1  0  0  0  1  0  0  1  0  0  0  0  0  0  0  0
%% 0  0  0  1  0  1  1  0  1  0  0  0  0  0  0  0  0  0  1  0
%% 0  0  0  1  0  0  0  1  0  1  1  0  0  1  0  0  0  0  0  0
%% 1  1  1  1  0  1  1  1  1  0  0  0  1  0  1  0  2  0  0  2
%% 0  0  0  0  0  0  0  0  0  0  0  0  0  0  0  0  0  0  0  0
%% 0  0  0  1  2  2  0  1  1  1  1  1  0  0  0  0  0  0  0  0
%Played Games - Tie Results:
%% 0  2  1  1  1  0  0  0  2  2  0  1  2  1  2  1  1  0  0  1
%% 2  0  2  2  1  2  0  0  2  0  1  1  0  1  0  1  1  0  1  1
%% 1  2  0  1  2  1  0  2  1  0  0  2  0  1  0  2  1  0  1  1
%% 1  2  1  0  1  1  1  2  2  0  2  2  1  0  0  0  0  0  1  0
%% 1  1  2  1  0  1  1  1  1  2  2  1  0  1  0  2  1  1  0  0
%% 0  2  1  1  1  0  0  1  1  0  1  1  0  0  1  0  2  0  2  0
%% 0  0  0  1  1  0  0  0  2  1  2  0  2  1  1  0  1  0  2  1
%% 0  0  2  2  1  1  0  0  2  0  2  0  0  1  1  2  0  0  1  0
%% 2  2  1  2  1  1  2  2  0  0  0  1  1  1  0  0  1  0  0  0
%% 2  0  0  0  2  0  1  0  0  0  2  1  0  1  1  0  0  1  0  0
%% 0  1  0  2  2  1  2  2  0  2  0  1  1  1  1  1  0  1  1  0
%% 1  1  2  2  1  1  0  0  1  1  1  0  0  0  0  1  2  2  2  0
%% 2  0  0  1  0  0  2  0  1  0  1  0  0  1  1  0  0  0  1  1
%% 1  1  1  0  1  0  1  1  1  1  1  0  1  0  2  1  0  1  2  2
%% 2  0  0  0  0  1  1  1  0  1  1  0  1  2  0  1  2  0  1  2
%% 1  1  2  0  2  0  0  2  0  0  1  1  0  1  1  0  1  2  0  1
%% 1  1  1  0  1  2  1  0  1  0  0  2  0  0  2  1  0  0  1  1
%% 0  0  0  0  1  0  0  0  0  1  1  2  0  1  0  2  0  0  2  0
%% 0  1  1  1  0  2  2  1  0  0  1  2  1  2  1  0  1  2  0  1
%% 1  1  1  0  0  0  1  0  0  0  0  0  1  2  2  1  1  0  1  0
%Played Games - Lose Results:
%% 0  0  0  0  0  1  1  1  0  0  0  0  0  0  0  0  0  1  0  0
%% 0  0  0  0  0  0  1  1  0  1  0  0  1  0  1  0  0  1  0  0
%% 0  0  0  0  0  0  1  0  0  1  0  0  1  0  1  0  0  1  0  0
%% 0  0  0  0  0  0  0  0  0  1  0  0  0  1  1  1  1  1  0  1
%% 0  0  0  0  0  0  0  0  0  0  0  0  1  0  1  0  0  0  0  2
%% 0  0  0  0  0  0  1  0  0  1  0  0  2  1  0  1  0  1  0  2
%% 0  0  0  0  0  0  0  0  0  0  0  0  0  0  0  1  0  1  0  0
%% 0  0  0  0  0  0  1  0  0  1  0  0  1  0  0  0  1  1  0  1
%% 0  0  0  0  0  0  0  0  0  1  0  0  0  0  1  1  0  1  0  1
%% 0  0  0  0  0  0  0  0  0  0  0  0  1  0  0  0  1  0  0  1
%% 1  0  1  0  0  0  0  0  1  0  0  0  0  0  0  0  1  0  0  1
%% 0  0  0  0  0  0  1  1  0  0  0  0  1  1  1  0  0  0  0  1
%% 0  0  0  0  0  0  0  0  0  0  0  0  0  0  0  0  0  1  0  0
%% 0  0  0  0  0  0  0  0  0  1  0  0  1  0  0  0  1  0  0  0
%% 0  0  0  0  0  0  1  0  0  0  0  0  0  0  0  0  0  1  0  0
%% 0  0  0  0  0  0  0  0  0  2  0  0  1  0  0  0  0  0  0  0
%% 0  0  0  0  0  0  0  0  0  0  0  0  2  0  0  0  0  2  0  0
%% 0  0  0  0  0  0  0  0  0  0  0  0  0  0  0  0  0  0  0  0
%% 1  0  0  0  1  0  0  0  1  1  0  0  0  0  0  1  0  0  0  0
%% 0  0  0  0  0  0  0  0  0  0  0  0  0  0  0  0  0  2  0  0

%%Initial points:
iPoints=[24, 18, 21, 17, 22, 17, 36, 24, 23, 41, 19, 18, 47, 27, 34, 31, 30, 52, 19, 42];

%%Initial positions:
%iPositions=[11, 18, 14, 20, 13, 19, 5, 10, 12, 4, 16, 17, 2, 9, 6, 7, 8, 1, 15, 3];

%%Position Constraints:
%numberPositionConstraints=2;

%%Total Fixtures:
%totalFixtures=38;

%%Fixtures to Play:
%fixturesToPlay=14;

%%Position Constraints Built With
%wantedPoints=[1, 1, 0, 1, 1, 3, 3, 0, 3, 3, 1, 3, 1, 3, 3, 1, 0, 3, 3, 0, 0, 0, 0, 3, 0, 0, 3, 0, 3, 0, 3, 0, 1, 3, 1, 0, 0, 3, 1, 1, 1, 3, 1, 3, 3, 0, 3, 3, 3, 0, 3, 3, 3, 1, 0, 0, 1, 1, 1, 0, 3, 1, 3, 3, 0, 0, 3, 1, 0, 1, 1, 0, 3, 3, 3, 3, 3, 0, 1, 0, 3, 1, 3, 3, 3, 1, 0, 1, 0, 1, 3, 1, 3, 3, 3, 0, 0, 0, 0, 1, 1, 3, 3, 3, 1, 3, 3, 0, 3, 3, 0, 1, 1, 1, 0, 1, 3, 0, 0, 0, 3, 3, 1, 1, 3, 1, 0, 3, 3, 3, 1, 3, 0, 1, 0, 1, 1, 3, 3, 1];

%%Probabilities:
probabilities=[|81,8,0,11,|53,39,0,8,|44,40,0,16,|85,6,0,9,|62,14,0,24,|88,6,0,6,|21,41,0,38,|8,46,0,46,|15,33,0,52,|11,57,0,32,|61,23,0,16,|55,25,0,20,|41,49,0,10,|54,3,0,43,|43,28,0,29,|41,17,0,42,|7,47,0,46,|76,8,0,16,|26,68,0,6,|92,0,0,8,|2,22,0,76,|79,10,0,11,|4,37,0,59,|28,57,0,15,|85,9,0,6,|66,31,0,3,|76,22,0,2,|12,32,0,56,|57,0,0,43,|45,36,0,19,|93,1,0,6,|29,45,0,26,|63,13,0,24,|61,23,0,16,|40,11,0,49,|60,27,0,13,|36,16,0,48,|84,15,0,1,|45,26,0,29,|61,24,0,15,|86,12,0,2,|74,23,0,3,|52,31,0,17,|98,0,0,2,|41,31,0,28,|11,73,0,16,|48,23,0,29,|95,4,0,1,|72,20,0,8,|61,22,0,17,|79,1,0,20,|80,13,0,7,|2,90,0,8,|94,0,0,6,|10,56,0,34,|25,31,0,44,|63,19,0,18,|22,49,0,29,|43,31,0,26,|82,16,0,2,|52,5,0,43,|7,69,0,24,|8,35,0,57,|50,49,0,1,|23,54,0,23,|48,23,0,29,|80,2,0,18,|3,95,0,2,|0,64,0,36,|83,3,0,14,|65,27,0,8,|77,12,0,11,|51,31,0,18,|22,56,0,22,|25,35,0,40,|45,19,0,36,|30,30,0,40,|9,78,0,13,|84,12,0,4,|94,1,0,5,|16,62,0,22,|68,3,0,29,|47,7,0,46,|82,18,0,0,|41,9,0,50,|63,2,0,35,|48,7,0,45,|9,65,0,26,|98,0,0,2,|28,63,0,9,|58,8,0,34,|68,2,0,30,|76,13,0,11,|36,0,0,64,|99,1,0,0,|39,60,0,1,|39,28,0,33,|53,15,0,32,|25,1,0,74,|50,2,0,48,|81,2,0,17,|18,19,0,63,|86,5,0,9,|9,87,0,4,|12,42,0,46,|3,42,0,55,|99,0,0,1,|12,31,0,57,|75,13,0,12,|81,7,0,12,|33,13,0,54,|9,70,0,21,|11,23,0,66,|58,40,0,2,|92,4,0,4,|1,53,0,46,|9,63,0,28,|97,3,0,0,|31,66,0,3,|65,25,0,10,|72,27,0,1,|30,45,0,25,|98,0,0,2,|48,22,0,30,|16,51,0,33,|50,1,0,49,|77,8,0,15,|80,19,0,1,|75,3,0,22,|50,30,0,20,|41,59,0,0,|79,6,0,15,|4,95,0,1,|77,1,0,22,|75,3,0,22,|54,43,0,3,|86,14,0,0,|82,2,0,16,|55,16,0,29,|61,26,0,13,|];


%POSITION CONSTRAINTS
%%[|teamID, operator, position|...]
%%operators index:
%%%1 for =  operator
%%%2 for >  operator
%%%3 for >= operator
%%%4 for <  operator
%%%5 for <= operator

positionConstraints=[|15,1,4|9,1,11|];

%SCORE VECTOR CONSTRAINTS
%%[|teamID, operator, wantedPoints|...]
%%operators index:
%%%1 for =  operator
%%%2 for >  operator
%%%3 for >= operator
%%%4 for <  operator
%%%5 for <= operator

%scoreVectorConstraints=[|15,1,57|9,1,43|];

%Instance Features:
%features=T,FP,TF,C,C/T,C/TF,FP/TF,FP/T,FP*C/T,FP*T/C,(C/T)*(FP/TF),Distance,Distance/C,Distance/T,Distance/(C*T)
%values=20,14,38,2,0.1,0.05263157894736842,0.3684210526315789,0.7,1.4,140.0,0.03684210526315789,3,1.5,0.15,0.075



